p wcnf 9 33 10
1 -1 0
1 -2 0
1 -3 0
1 -4 0
1 -5 0
1 -6 0
1 -7 0
1 -8 0
1 -9 0
10 1 3 0
10 1 4 0
10 1 5 0
10 1 6 0
10 1 8 0
10 1 9 0
10 2 3 0
10 2 4 0
10 2 5 0
10 2 7 0
10 2 8 0
10 2 9 0
10 3 5 0
10 3 6 0
10 3 7 0
10 3 8 0
10 3 9 0
10 4 5 0
10 5 7 0
10 5 8 0
10 6 7 0
10 7 8 0
10 7 9 0
10 8 9 0
